(set-info :smt-lib-version 2.6)
(set-logic QF_NRA)
(set-info :source |
Generated by: Ali K. Uncu, Matthew England, and James H. Davenport
Generated on: 2022-01-06

Generator: SUMCracker-ProveInequality function by Manuel Kauers ("https://www3.risc.jku.at/research/combinat/software/ergosum/RISC/SumCracker.html")
Translated to SMT-Lib by Maple SMTLIB package.

Application: CAD calls of SUMCracker-ProveInequality to prove Example 1 in
M. Kauers and V. Pillwein, When can we detect that a P-finite sequence is positive?
ISSAC '10: Proceedings of the 2010 International Symposium on Symbolic and Algebraic ComputationJuly 2010 Pages 195–201
(https://doi.org/10.1145/1837934.1837974)

All denominators in the original CAD call got cleared in a simple way:
a/b == c/d --> a d==b c && b<>0 && d<>0
a/b > c/d --> a d^2 >=b^2 c && b<>0 && d<>0
|)
(set-info :license "https://creativecommons.org/licenses/by/4.0/")
(set-info :status unsat)
(set-info :category "industrial")

(declare-fun V1 () Real)
(declare-fun V2 () Real)
(declare-fun V3 () Real)
(declare-fun V4 () Real)
(assert (and (<= 0 V1) (<= 0 V2) (<= 0 V3) (<= 1 V4) (<= 0 V4) (<= 0 (+ 1 V4)) (<= 0 (+ 2 V4)) (<= 0 (+ 3 V4)) (<= 0 (+ 4 V4)) (<= 0 (+ 5 V4)) (<= 0 (* (+ 13 (* V4 2)) (+ (* V1 (+ 7 (* V4 2))) (* (* V2 (+ 20 (* V4 3))) (- 1)) (* V3 (+ 22 (* V4 5)))))) (<= 0 (* (+ 13 (* V4 2)) (+ 15 (* V4 2)) (+ (* V1 (+ (* (* V4 V4) 10) (* V4 89) 189)) (* (* V2 (+ (* (* V4 V4) 11) (* V4 137) 423)) (- 1)) (* V3 (+ (* (* V4 V4) 19) (* V4 160) 295))))) (<= 0 (* (+ 13 (* V4 2)) (+ 15 (* V4 2)) (+ 17 (* V4 2)) (+ (* (* V2 (+ (* (* V4 V4 V4) 37) (* (* V4 V4) 626) (* V4 3389) 5736)) (- 1)) (* V1 (+ (* (* V4 V4 V4) 38) (* (* V4 V4) 529) (* V4 2334) 3318)) (* V3 (+ (* (* V4 V4 V4) 73) (* (* V4 V4) 947) (* V4 3517) 3005))))) (< (* (+ 13 (* V4 2)) (+ 15 (* V4 2)) (+ 17 (* V4 2)) (+ 19 (* V4 2)) (+ (* (* V2 (+ (* (* V4 V4 V4 V4) 143) (* (* V4 V4 V4) 3178) (* (* V4 V4) 24839) (* V4 77210) 69993)) (- 1)) (* V1 (+ (* (* V4 V4 V4 V4) 146) (* (* V4 V4 V4) 2843) (* (* V4 V4) 19422) (* V4 54494) 52794)) (* V3 (+ (* (* V4 V4 V4 V4) 291) (* (* V4 V4 V4) 5481) (* (* V4 V4) 34717) (* V4 80218) 38680)))) 0) (not (= (+ 13 (* V4 2)) 0)) (not (= (* (+ 13 (* V4 2)) (+ 15 (* V4 2))) 0)) (not (= (* (+ 13 (* V4 2)) (+ 15 (* V4 2)) (+ 17 (* V4 2))) 0)) (not (= (* (+ 13 (* V4 2)) (+ 15 (* V4 2)) (+ 17 (* V4 2)) (+ 19 (* V4 2))) 0))))
(check-sat)
(exit)




















